(declare-rel Goal ())
(declare-rel Invariant (Bool Bool Bool Bool Bool Bool Bool Bool Bool Bool Bool Bool Bool Bool))
(declare-var A Bool)
(declare-var B Bool)
(declare-var C Bool)
(declare-var D Bool)
(declare-var E Bool)
(declare-var F Bool)
(declare-var G Bool)
(declare-var H Bool)
(declare-var I Bool)
(declare-var J Bool)
(declare-var K Bool)
(declare-var L Bool)
(declare-var M Bool)
(declare-var N Bool)
(declare-var O Bool)
(declare-var P Bool)
(declare-var Q Bool)
(declare-var R Bool)
(declare-var S Bool)
(declare-var T Bool)
(declare-var U Bool)
(declare-var V Bool)
(declare-var W Bool)
(declare-var X Bool)
(declare-var Y Bool)
(declare-var Z Bool)
(declare-var A1 Bool)
(declare-var B1 Bool)
(declare-var C1 Bool)
(declare-var D1 Bool)
(declare-var E1 Bool)
(declare-var F1 Bool)
(declare-var G1 Bool)
(declare-var H1 Bool)
(declare-var I1 Bool)
(declare-var J1 Bool)
(declare-var K1 Bool)
(declare-var L1 Bool)
(declare-var M1 Bool)
(rule (=> (not (or A B C D E F G H I J K L M N))
    (Invariant A B C D E F G H I J K L M N)))
(rule (let ((a!1 (and (not M) (not J1) (not (and L1 (not K1)))))
      (a!2 (and (not F) (not (and N (not D)))))
      (a!5 (and (not L) (not (and N (not D)))))
      (a!8 (and (not H) (not (and N (not D)))))
      (a!11 (and (not J) (not (and N (not D)))))
      (a!14 (and B
                 C
                 D
                 (not (and E (not F)))
                 (not (and (not E) F))
                 (not (and (not G) H))
                 (not (and G (not H)))
                 (not (and (not I) J))
                 (not (and I (not J)))
                 (not (and (not K) (not L)))
                 (not (and K L))))
      (a!17 (and (not (and (not N) (not D))) (not (and (not K) G))))
      (a!19 (and I (not (and E (not K) (not G)))))
      (a!22 (and M (not (and (not N) (not D)))))
      (a!23 (and C1 (not (and E (not K))))))
(let ((a!3 (and (not I1) (not (and (not E) N (not D))) (not a!2)))
      (a!4 (and (not (and (not E) N (not D))) (not a!2)))
      (a!6 (and (not H1) (not a!5) (not (and K N (not D)))))
      (a!7 (and (not a!5) (not (and K N (not D)))))
      (a!9 (and (not G1) (not (and (not G) N (not D))) (not a!8)))
      (a!10 (and (not (and (not G) N (not D))) (not a!8)))
      (a!12 (and (not F1) (not (and (not I) N (not D))) (not a!11)))
      (a!13 (and (not (and (not I) N (not D))) (not a!11)))
      (a!18 (and M (not (and (not B) (not a!17)))))
      (a!20 (and (not (and (not N) (not D))) (not a!19))))
(let ((a!15 (and (not (and K (not G)))
                 (not (and (not I) E (not K) (not G)))
                 (not a!3)
                 (not (and I1 (not a!4)))
                 (not a!6)
                 (not (and H1 (not a!7)))
                 (not a!9)
                 (not (and G1 (not a!10)))
                 (not a!12)
                 (not (and F1 (not a!13)))
                 A
                 (not (and D1 (not a!14)))))
      (a!21 (and M (not (and (not C) (not a!20))))))
(let ((a!16 (and (not a!1) (not (and M (not a!15))))))
(let ((a!24 (and (Invariant A B C D E F G H I J K L M N)
                 (= O a!16)
                 (= P a!18)
                 (= Q a!21)
                 (= R a!22)
                 (= S L1)
                 (= T I1)
                 (= U K1)
                 (= V G1)
                 (= W J1)
                 (= X F1)
                 (= Y (and M (not a!23)))
                 (= Z H1)
                 A1
                 (= B1 E1))))
  (=> a!24 (Invariant O P Q R S T U V W X Y Z A1 B1))))))))
(rule (let ((a!1 (and L1
                K1
                J1
                (not (and I1 (not H1)))
                (not (and (not I1) H1))
                (not (and (not G1) F1))
                (not (and G1 (not F1)))
                (not (and (not E1) D1))
                (not (and E1 (not D1)))
                (not (and (not C1) (not B1)))
                (not (and C1 B1)))))
(let ((a!2 (and (Invariant M1 L1 K1 J1 I1 H1 G1 F1 E1 D1 C1 B1 A1 Z)
                J
                M1
                (not (and J (not a!1))))))
  (=> a!2 Goal))))
(query Goal)
